c " random instance " 
p edges 200 2215
e 1 12
e 1 33
e 1 44
e 1 64
e 1 68
e 1 70
e 1 80
e 1 87
e 1 89
e 1 105
e 1 121
e 1 149
e 1 163
e 1 182
e 1 184
e 1 198
e 2 26
e 2 40
e 2 44
e 2 48
e 2 49
e 2 56
e 2 61
e 2 71
e 2 77
e 2 81
e 2 94
e 2 97
e 2 106
e 2 111
e 2 121
e 2 132
e 2 142
e 2 147
e 2 150
e 2 152
e 2 182
e 2 195
e 3 20
e 3 30
e 3 48
e 3 70
e 3 87
e 3 93
e 3 98
e 3 127
e 3 132
e 3 135
e 3 147
e 3 150
e 3 152
e 3 156
e 3 164
e 3 167
e 3 193
e 4 11
e 4 15
e 4 17
e 4 21
e 4 24
e 4 47
e 4 50
e 4 59
e 4 75
e 4 81
e 4 95
e 4 131
e 4 132
e 4 136
e 4 138
e 4 168
e 4 174
e 4 189
e 5 6
e 5 7
e 5 18
e 5 27
e 5 30
e 5 32
e 5 52
e 5 55
e 5 60
e 5 61
e 5 63
e 5 73
e 5 89
e 5 94
e 5 110
e 5 118
e 5 123
e 5 134
e 5 159
e 5 164
e 5 165
e 5 179
e 5 183
e 6 9
e 6 15
e 6 17
e 6 56
e 6 60
e 6 84
e 6 89
e 6 97
e 6 99
e 6 110
e 6 132
e 6 141
e 6 155
e 6 161
e 6 197
e 6 199
e 7 11
e 7 27
e 7 28
e 7 34
e 7 45
e 7 46
e 7 54
e 7 62
e 7 77
e 7 84
e 7 94
e 7 97
e 7 100
e 7 110
e 7 113
e 7 118
e 7 119
e 7 133
e 7 171
e 7 173
e 7 174
e 7 183
e 7 191
e 7 192
e 7 196
e 8 19
e 8 20
e 8 22
e 8 33
e 8 36
e 8 38
e 8 42
e 8 45
e 8 52
e 8 54
e 8 66
e 8 75
e 8 81
e 8 88
e 8 99
e 8 104
e 8 119
e 8 122
e 8 123
e 8 127
e 8 133
e 8 139
e 8 140
e 8 146
e 8 147
e 8 151
e 8 159
e 8 161
e 8 179
e 8 181
e 9 12
e 9 19
e 9 22
e 9 36
e 9 38
e 9 40
e 9 75
e 9 76
e 9 79
e 9 87
e 9 92
e 9 93
e 9 111
e 9 112
e 9 113
e 9 120
e 9 124
e 9 125
e 9 139
e 9 143
e 9 164
e 9 174
e 9 186
e 9 187
e 9 188
e 9 189
e 9 193
e 9 198
e 10 16
e 10 21
e 10 25
e 10 29
e 10 37
e 10 42
e 10 63
e 10 64
e 10 83
e 10 97
e 10 118
e 10 133
e 10 142
e 10 150
e 10 159
e 10 163
e 10 165
e 10 174
e 10 179
e 10 195
e 10 196
e 10 197
e 11 31
e 11 32
e 11 54
e 11 56
e 11 63
e 11 83
e 11 100
e 11 111
e 11 117
e 11 129
e 11 132
e 11 142
e 11 150
e 11 159
e 11 163
e 11 169
e 11 173
e 11 176
e 11 186
e 11 190
e 11 193
e 11 195
e 11 198
e 12 32
e 12 53
e 12 78
e 12 83
e 12 84
e 12 91
e 12 94
e 12 119
e 12 123
e 12 131
e 12 133
e 12 144
e 12 153
e 12 157
e 12 158
e 13 31
e 13 37
e 13 46
e 13 51
e 13 64
e 13 73
e 13 101
e 13 104
e 13 107
e 13 122
e 13 124
e 13 127
e 13 150
e 13 156
e 13 167
e 13 170
e 13 174
e 13 177
e 13 186
e 14 19
e 14 21
e 14 46
e 14 74
e 14 75
e 14 87
e 14 104
e 14 121
e 14 125
e 14 139
e 14 147
e 14 198
e 15 18
e 15 22
e 15 28
e 15 40
e 15 54
e 15 55
e 15 57
e 15 62
e 15 65
e 15 66
e 15 68
e 15 69
e 15 93
e 15 94
e 15 97
e 15 122
e 15 142
e 15 156
e 15 168
e 15 189
e 15 195
e 15 199
e 16 30
e 16 31
e 16 33
e 16 36
e 16 37
e 16 38
e 16 40
e 16 44
e 16 49
e 16 53
e 16 58
e 16 61
e 16 66
e 16 75
e 16 83
e 16 104
e 16 130
e 16 132
e 16 141
e 16 161
e 16 165
e 16 168
e 16 169
e 16 197
e 16 200
e 17 20
e 17 27
e 17 30
e 17 37
e 17 69
e 17 72
e 17 79
e 17 85
e 17 90
e 17 93
e 17 97
e 17 101
e 17 116
e 17 117
e 17 148
e 17 153
e 17 159
e 17 162
e 17 174
e 17 175
e 17 182
e 17 185
e 18 20
e 18 37
e 18 49
e 18 52
e 18 56
e 18 65
e 18 68
e 18 69
e 18 81
e 18 97
e 18 98
e 18 103
e 18 109
e 18 120
e 18 126
e 18 131
e 18 143
e 18 145
e 18 167
e 18 170
e 18 178
e 18 189
e 19 35
e 19 37
e 19 61
e 19 94
e 19 95
e 19 107
e 19 110
e 19 155
e 19 156
e 19 158
e 19 173
e 19 174
e 19 176
e 19 196
e 20 46
e 20 48
e 20 52
e 20 67
e 20 71
e 20 75
e 20 81
e 20 83
e 20 91
e 20 92
e 20 102
e 20 103
e 20 105
e 20 106
e 20 107
e 20 140
e 20 156
e 20 167
e 20 178
e 20 186
e 20 193
e 20 198
e 21 45
e 21 50
e 21 53
e 21 80
e 21 81
e 21 86
e 21 112
e 21 164
e 21 167
e 21 175
e 21 178
e 21 188
e 21 199
e 22 43
e 22 44
e 22 51
e 22 53
e 22 69
e 22 70
e 22 86
e 22 93
e 22 106
e 22 111
e 22 113
e 22 129
e 22 139
e 22 160
e 22 173
e 22 196
e 22 199
e 23 25
e 23 34
e 23 36
e 23 52
e 23 72
e 23 92
e 23 94
e 23 107
e 23 109
e 23 129
e 23 135
e 23 136
e 23 138
e 23 151
e 23 154
e 23 173
e 23 180
e 23 191
e 23 197
e 23 200
e 24 35
e 24 49
e 24 64
e 24 67
e 24 72
e 24 79
e 24 83
e 24 91
e 24 98
e 24 100
e 24 101
e 24 112
e 24 118
e 24 119
e 24 121
e 24 137
e 24 138
e 24 154
e 24 174
e 24 194
e 25 30
e 25 45
e 25 47
e 25 50
e 25 69
e 25 75
e 25 78
e 25 82
e 25 96
e 25 98
e 25 100
e 25 111
e 25 112
e 25 114
e 25 120
e 25 121
e 25 126
e 25 133
e 25 146
e 25 185
e 25 190
e 25 191
e 26 27
e 26 49
e 26 55
e 26 72
e 26 80
e 26 88
e 26 96
e 26 109
e 26 121
e 26 127
e 26 132
e 26 133
e 26 140
e 26 147
e 26 159
e 26 162
e 26 178
e 26 196
e 27 48
e 27 59
e 27 63
e 27 82
e 27 88
e 27 106
e 27 118
e 27 119
e 27 137
e 27 145
e 27 146
e 27 163
e 27 168
e 27 198
e 28 31
e 28 33
e 28 35
e 28 39
e 28 48
e 28 60
e 28 62
e 28 74
e 28 75
e 28 76
e 28 82
e 28 84
e 28 86
e 28 103
e 28 105
e 28 110
e 28 131
e 28 148
e 28 150
e 28 151
e 28 157
e 28 159
e 28 165
e 28 173
e 28 184
e 28 192
e 28 197
e 29 30
e 29 31
e 29 36
e 29 43
e 29 52
e 29 76
e 29 80
e 29 91
e 29 93
e 29 96
e 29 117
e 29 120
e 29 122
e 29 137
e 29 145
e 29 170
e 29 187
e 29 190
e 30 33
e 30 41
e 30 62
e 30 70
e 30 87
e 30 95
e 30 97
e 30 112
e 30 136
e 30 147
e 30 152
e 30 153
e 30 155
e 30 180
e 30 184
e 30 197
e 30 198
e 30 200
e 31 33
e 31 42
e 31 53
e 31 54
e 31 57
e 31 76
e 31 78
e 31 81
e 31 82
e 31 84
e 31 94
e 31 104
e 31 110
e 31 128
e 31 130
e 31 133
e 31 144
e 31 153
e 31 163
e 31 168
e 31 176
e 31 177
e 31 194
e 31 200
e 32 34
e 32 57
e 32 75
e 32 85
e 32 93
e 32 106
e 32 107
e 32 126
e 32 135
e 32 141
e 32 144
e 32 166
e 32 196
e 32 198
e 33 44
e 33 48
e 33 71
e 33 72
e 33 92
e 33 93
e 33 113
e 33 114
e 33 122
e 33 127
e 33 132
e 33 137
e 33 141
e 33 154
e 33 172
e 33 178
e 33 186
e 33 188
e 33 191
e 33 200
e 34 49
e 34 60
e 34 70
e 34 77
e 34 84
e 34 88
e 34 92
e 34 97
e 34 99
e 34 105
e 34 121
e 34 124
e 34 131
e 34 154
e 34 157
e 34 177
e 34 186
e 34 193
e 35 49
e 35 61
e 35 70
e 35 72
e 35 74
e 35 86
e 35 89
e 35 97
e 35 100
e 35 105
e 35 114
e 35 133
e 35 155
e 35 163
e 35 178
e 35 190
e 35 191
e 36 57
e 36 61
e 36 62
e 36 92
e 36 106
e 36 114
e 36 154
e 36 163
e 36 171
e 36 172
e 36 183
e 37 38
e 37 39
e 37 41
e 37 98
e 37 102
e 37 108
e 37 111
e 37 127
e 37 129
e 37 135
e 37 140
e 37 155
e 37 160
e 37 179
e 37 185
e 38 52
e 38 56
e 38 59
e 38 77
e 38 87
e 38 93
e 38 94
e 38 95
e 38 97
e 38 116
e 38 119
e 38 136
e 38 162
e 38 163
e 38 182
e 38 187
e 38 192
e 38 199
e 39 42
e 39 52
e 39 64
e 39 74
e 39 78
e 39 81
e 39 101
e 39 103
e 39 119
e 39 122
e 39 127
e 39 131
e 39 147
e 39 168
e 39 170
e 39 199
e 40 52
e 40 55
e 40 56
e 40 74
e 40 81
e 40 102
e 40 108
e 40 131
e 40 140
e 40 149
e 40 152
e 40 156
e 40 158
e 40 168
e 40 177
e 40 178
e 40 180
e 40 191
e 40 194
e 40 197
e 41 51
e 41 53
e 41 74
e 41 85
e 41 97
e 41 116
e 41 125
e 41 143
e 41 146
e 41 150
e 41 152
e 41 164
e 41 171
e 41 183
e 41 188
e 42 50
e 42 67
e 42 81
e 42 105
e 42 111
e 42 113
e 42 153
e 42 176
e 43 48
e 43 50
e 43 64
e 43 65
e 43 91
e 43 98
e 43 106
e 43 110
e 43 116
e 43 119
e 43 125
e 43 126
e 43 131
e 43 154
e 43 158
e 43 173
e 43 200
e 44 67
e 44 71
e 44 74
e 44 76
e 44 90
e 44 92
e 44 93
e 44 106
e 44 107
e 44 132
e 44 140
e 44 145
e 44 150
e 44 152
e 44 168
e 44 176
e 44 179
e 44 180
e 44 183
e 44 200
e 45 48
e 45 54
e 45 56
e 45 64
e 45 67
e 45 119
e 45 122
e 45 131
e 45 133
e 45 134
e 45 178
e 45 180
e 45 186
e 46 47
e 46 50
e 46 53
e 46 58
e 46 59
e 46 60
e 46 63
e 46 65
e 46 70
e 46 74
e 46 79
e 46 83
e 46 85
e 46 94
e 46 100
e 46 109
e 46 114
e 46 122
e 46 142
e 46 158
e 46 172
e 46 173
e 46 183
e 46 192
e 47 48
e 47 51
e 47 56
e 47 58
e 47 66
e 47 67
e 47 75
e 47 79
e 47 82
e 47 100
e 47 102
e 47 123
e 47 127
e 47 154
e 47 157
e 47 165
e 47 168
e 47 178
e 47 183
e 47 192
e 47 197
e 47 198
e 48 52
e 48 55
e 48 60
e 48 66
e 48 67
e 48 95
e 48 103
e 48 112
e 48 128
e 48 139
e 48 140
e 48 151
e 48 166
e 48 167
e 48 168
e 48 169
e 48 174
e 48 184
e 49 50
e 49 51
e 49 75
e 49 76
e 49 80
e 49 81
e 49 86
e 49 88
e 49 105
e 49 117
e 49 121
e 49 139
e 49 140
e 49 141
e 49 152
e 49 153
e 49 159
e 49 169
e 49 174
e 49 181
e 49 189
e 49 197
e 50 53
e 50 54
e 50 56
e 50 61
e 50 78
e 50 79
e 50 86
e 50 93
e 50 94
e 50 98
e 50 107
e 50 111
e 50 112
e 50 118
e 50 122
e 50 129
e 50 134
e 50 135
e 50 159
e 50 161
e 50 162
e 50 194
e 50 198
e 51 69
e 51 86
e 51 89
e 51 93
e 51 97
e 51 101
e 51 105
e 51 115
e 51 119
e 51 130
e 51 132
e 51 144
e 51 152
e 51 161
e 51 163
e 51 166
e 51 167
e 52 56
e 52 60
e 52 61
e 52 76
e 52 82
e 52 92
e 52 98
e 52 126
e 52 130
e 52 133
e 52 145
e 52 148
e 52 152
e 52 153
e 52 163
e 52 164
e 52 169
e 52 192
e 52 198
e 53 54
e 53 65
e 53 72
e 53 92
e 53 95
e 53 99
e 53 100
e 53 110
e 53 114
e 53 116
e 53 128
e 53 155
e 53 170
e 53 185
e 53 198
e 54 66
e 54 76
e 54 88
e 54 90
e 54 102
e 54 107
e 54 116
e 54 130
e 54 148
e 54 172
e 54 183
e 54 185
e 55 64
e 55 69
e 55 70
e 55 87
e 55 88
e 55 93
e 55 96
e 55 99
e 55 104
e 55 120
e 55 126
e 55 133
e 55 137
e 55 141
e 55 148
e 55 169
e 55 172
e 55 184
e 55 197
e 56 102
e 56 112
e 56 118
e 56 124
e 56 129
e 56 144
e 56 153
e 56 164
e 56 167
e 56 176
e 56 189
e 56 193
e 56 196
e 57 64
e 57 75
e 57 101
e 57 102
e 57 104
e 57 113
e 57 135
e 57 136
e 57 139
e 57 170
e 57 179
e 57 180
e 57 187
e 57 190
e 57 191
e 57 197
e 57 198
e 58 60
e 58 65
e 58 85
e 58 104
e 58 111
e 58 118
e 58 130
e 58 136
e 58 137
e 58 144
e 58 145
e 58 148
e 58 153
e 58 161
e 58 166
e 58 170
e 58 172
e 58 174
e 59 61
e 59 69
e 59 77
e 59 82
e 59 84
e 59 85
e 59 91
e 59 100
e 59 105
e 59 118
e 59 134
e 59 141
e 59 155
e 59 172
e 59 183
e 59 193
e 60 62
e 60 68
e 60 75
e 60 86
e 60 94
e 60 99
e 60 106
e 60 112
e 60 113
e 60 130
e 60 140
e 60 143
e 60 178
e 60 180
e 60 182
e 60 188
e 60 192
e 60 194
e 60 198
e 61 79
e 61 83
e 61 94
e 61 98
e 61 101
e 61 105
e 61 119
e 61 126
e 61 128
e 61 132
e 61 155
e 61 161
e 61 166
e 61 167
e 61 168
e 61 169
e 61 171
e 61 175
e 61 188
e 61 191
e 62 67
e 62 81
e 62 94
e 62 112
e 62 115
e 62 116
e 62 128
e 62 131
e 62 152
e 62 161
e 63 77
e 63 78
e 63 86
e 63 89
e 63 98
e 63 123
e 63 126
e 63 128
e 63 136
e 63 139
e 63 146
e 63 165
e 63 169
e 63 170
e 63 182
e 63 190
e 63 196
e 63 198
e 63 199
e 64 69
e 64 83
e 64 86
e 64 98
e 64 101
e 64 103
e 64 131
e 64 151
e 64 166
e 64 168
e 64 180
e 64 182
e 64 186
e 64 190
e 65 66
e 65 71
e 65 73
e 65 76
e 65 93
e 65 136
e 65 159
e 65 161
e 65 166
e 65 181
e 65 199
e 66 74
e 66 77
e 66 91
e 66 97
e 66 98
e 66 100
e 66 108
e 66 146
e 66 165
e 66 167
e 66 176
e 66 184
e 67 71
e 67 77
e 67 86
e 67 89
e 67 94
e 67 98
e 67 105
e 67 119
e 67 120
e 67 136
e 67 147
e 67 149
e 67 157
e 67 162
e 67 173
e 67 181
e 68 78
e 68 89
e 68 94
e 68 119
e 68 130
e 68 141
e 68 153
e 68 163
e 68 178
e 68 179
e 68 183
e 68 198
e 69 83
e 69 86
e 69 100
e 69 104
e 69 107
e 69 109
e 69 129
e 69 133
e 69 134
e 69 140
e 69 142
e 69 151
e 69 155
e 69 164
e 69 176
e 69 189
e 69 191
e 70 74
e 70 78
e 70 82
e 70 87
e 70 98
e 70 105
e 70 113
e 70 130
e 70 134
e 70 157
e 70 177
e 70 184
e 70 200
e 71 114
e 71 117
e 71 130
e 71 137
e 71 141
e 71 148
e 71 149
e 71 161
e 71 166
e 71 168
e 71 174
e 71 186
e 71 188
e 71 192
e 71 194
e 71 199
e 71 200
e 72 102
e 72 106
e 72 109
e 72 133
e 72 134
e 72 143
e 72 149
e 72 150
e 72 167
e 72 178
e 73 77
e 73 84
e 73 109
e 73 120
e 73 126
e 73 131
e 73 141
e 73 148
e 73 151
e 73 158
e 73 163
e 73 165
e 73 169
e 73 170
e 73 176
e 73 186
e 73 196
e 74 93
e 74 113
e 74 114
e 74 119
e 74 127
e 74 131
e 74 139
e 74 144
e 74 156
e 74 158
e 74 160
e 74 161
e 74 163
e 74 173
e 74 183
e 74 187
e 74 197
e 74 200
e 75 87
e 75 89
e 75 93
e 75 117
e 75 119
e 75 123
e 75 129
e 75 137
e 75 149
e 75 155
e 75 157
e 75 165
e 75 171
e 75 172
e 75 181
e 75 183
e 76 80
e 76 84
e 76 108
e 76 129
e 76 135
e 76 139
e 76 140
e 76 151
e 76 166
e 76 183
e 76 185
e 76 190
e 77 78
e 77 122
e 77 136
e 77 150
e 77 158
e 77 163
e 77 168
e 77 187
e 77 200
e 78 87
e 78 99
e 78 101
e 78 102
e 78 112
e 78 126
e 78 133
e 78 136
e 78 137
e 78 154
e 78 157
e 78 171
e 78 172
e 78 174
e 78 192
e 78 194
e 78 199
e 79 96
e 79 104
e 79 110
e 79 116
e 79 119
e 79 122
e 79 126
e 79 129
e 79 130
e 79 134
e 79 156
e 79 159
e 79 162
e 79 171
e 79 181
e 79 191
e 80 89
e 80 100
e 80 102
e 80 109
e 80 113
e 80 130
e 80 147
e 80 149
e 80 160
e 80 172
e 80 184
e 81 98
e 81 109
e 81 123
e 81 126
e 81 127
e 81 146
e 81 148
e 81 151
e 81 154
e 81 159
e 81 169
e 81 175
e 81 200
e 82 92
e 82 95
e 82 115
e 82 116
e 82 118
e 82 119
e 82 124
e 82 143
e 82 150
e 82 156
e 82 160
e 82 163
e 82 168
e 82 175
e 82 176
e 82 179
e 82 181
e 82 190
e 82 192
e 83 100
e 83 110
e 83 116
e 83 119
e 83 122
e 83 123
e 83 132
e 83 137
e 83 140
e 83 156
e 83 161
e 83 182
e 84 88
e 84 94
e 84 104
e 84 131
e 84 172
e 84 177
e 85 96
e 85 106
e 85 110
e 85 131
e 85 136
e 85 153
e 85 154
e 85 156
e 85 192
e 85 195
e 85 196
e 86 89
e 86 98
e 86 107
e 86 133
e 86 140
e 86 148
e 86 149
e 86 152
e 86 186
e 86 195
e 86 196
e 86 197
e 87 90
e 87 95
e 87 102
e 87 104
e 87 114
e 87 118
e 87 125
e 87 138
e 87 145
e 87 150
e 87 160
e 87 162
e 87 174
e 87 178
e 87 182
e 87 191
e 87 197
e 87 200
e 88 100
e 88 109
e 88 115
e 88 124
e 88 125
e 88 135
e 88 147
e 88 151
e 88 176
e 88 180
e 88 189
e 89 97
e 89 106
e 89 109
e 89 111
e 89 135
e 89 137
e 89 144
e 89 199
e 89 200
e 90 112
e 90 121
e 90 124
e 90 128
e 90 144
e 90 145
e 90 150
e 90 151
e 90 156
e 90 159
e 90 173
e 90 182
e 90 186
e 91 93
e 91 110
e 91 113
e 91 124
e 91 130
e 91 140
e 91 146
e 91 158
e 91 160
e 91 172
e 91 173
e 91 178
e 91 185
e 91 194
e 92 93
e 92 102
e 92 111
e 92 116
e 92 117
e 92 124
e 92 136
e 92 146
e 92 148
e 92 155
e 92 192
e 92 193
e 92 197
e 92 200
e 93 111
e 93 114
e 93 117
e 93 132
e 93 146
e 93 162
e 93 164
e 93 166
e 93 168
e 93 170
e 93 171
e 93 178
e 94 98
e 94 99
e 94 112
e 94 116
e 94 118
e 94 125
e 94 129
e 94 140
e 94 149
e 94 151
e 94 159
e 94 162
e 94 166
e 94 182
e 94 189
e 94 199
e 95 97
e 95 102
e 95 105
e 95 118
e 95 128
e 95 149
e 95 169
e 95 186
e 95 195
e 96 97
e 96 100
e 96 136
e 96 137
e 96 138
e 96 139
e 96 144
e 96 156
e 96 157
e 96 161
e 96 164
e 96 167
e 96 190
e 96 194
e 96 198
e 97 106
e 97 107
e 97 119
e 97 128
e 97 136
e 97 143
e 97 146
e 97 153
e 97 158
e 97 178
e 97 188
e 97 196
e 98 104
e 98 109
e 98 120
e 98 134
e 98 139
e 98 142
e 98 173
e 98 177
e 98 188
e 99 101
e 99 103
e 99 111
e 99 124
e 99 128
e 99 139
e 99 184
e 99 195
e 99 196
e 100 126
e 100 129
e 100 130
e 100 137
e 100 152
e 100 153
e 100 160
e 100 168
e 100 178
e 100 179
e 100 189
e 100 194
e 101 121
e 101 124
e 101 133
e 101 140
e 101 143
e 101 162
e 101 171
e 101 178
e 101 182
e 102 114
e 102 120
e 102 127
e 102 151
e 102 154
e 102 175
e 102 181
e 102 189
e 102 197
e 102 199
e 103 111
e 103 128
e 103 142
e 103 146
e 103 151
e 103 157
e 103 180
e 103 183
e 103 186
e 103 187
e 104 115
e 104 118
e 104 120
e 104 124
e 104 125
e 104 128
e 104 175
e 104 196
e 105 106
e 105 111
e 105 112
e 105 123
e 105 130
e 105 135
e 105 147
e 105 148
e 105 160
e 105 164
e 105 169
e 105 170
e 105 173
e 105 180
e 105 199
e 106 107
e 106 128
e 106 137
e 106 147
e 106 154
e 106 158
e 106 169
e 106 170
e 106 172
e 106 179
e 106 185
e 106 189
e 106 197
e 107 111
e 107 124
e 107 137
e 107 138
e 107 156
e 107 160
e 107 166
e 107 171
e 107 193
e 108 116
e 108 119
e 108 121
e 108 132
e 108 140
e 108 144
e 108 148
e 108 156
e 108 157
e 108 169
e 108 170
e 108 192
e 108 193
e 109 127
e 109 131
e 109 142
e 109 161
e 109 167
e 109 169
e 109 170
e 109 172
e 109 181
e 109 184
e 109 195
e 110 129
e 110 132
e 110 135
e 110 141
e 110 153
e 110 157
e 110 160
e 110 163
e 110 170
e 110 188
e 110 198
e 111 117
e 111 122
e 111 132
e 111 140
e 111 142
e 111 155
e 111 156
e 111 179
e 111 180
e 111 183
e 111 187
e 111 188
e 111 197
e 112 120
e 112 121
e 112 127
e 112 130
e 112 133
e 112 137
e 112 157
e 112 172
e 112 178
e 112 185
e 112 189
e 113 121
e 113 127
e 113 141
e 113 153
e 113 163
e 113 182
e 113 190
e 113 195
e 114 127
e 114 129
e 114 132
e 114 133
e 114 146
e 114 151
e 114 168
e 114 173
e 114 174
e 114 185
e 115 122
e 115 126
e 115 138
e 115 143
e 115 149
e 115 169
e 115 173
e 115 179
e 116 124
e 116 127
e 116 129
e 116 132
e 116 157
e 116 158
e 116 170
e 116 183
e 116 187
e 116 200
e 117 134
e 117 138
e 117 155
e 117 170
e 117 173
e 117 176
e 117 186
e 117 192
e 117 194
e 117 196
e 118 134
e 118 138
e 118 140
e 118 141
e 118 150
e 118 157
e 118 158
e 118 160
e 118 181
e 118 191
e 119 135
e 119 137
e 119 153
e 119 156
e 119 158
e 119 165
e 119 174
e 119 177
e 119 179
e 119 185
e 119 189
e 119 191
e 119 193
e 119 196
e 120 143
e 120 146
e 120 174
e 120 194
e 120 195
e 120 197
e 121 124
e 121 133
e 121 136
e 121 138
e 121 150
e 121 152
e 121 155
e 121 162
e 121 184
e 121 191
e 121 196
e 122 126
e 122 128
e 122 142
e 122 161
e 122 164
e 122 170
e 122 173
e 122 180
e 122 195
e 122 198
e 123 126
e 123 153
e 123 157
e 123 161
e 123 172
e 123 179
e 123 184
e 123 186
e 123 189
e 123 196
e 123 198
e 124 125
e 124 131
e 124 133
e 124 140
e 124 142
e 124 154
e 124 160
e 124 178
e 124 182
e 124 190
e 125 129
e 125 138
e 125 147
e 125 148
e 125 158
e 125 159
e 125 162
e 125 171
e 125 176
e 125 185
e 125 194
e 125 195
e 126 128
e 126 130
e 126 131
e 126 137
e 126 152
e 126 158
e 126 172
e 126 183
e 126 187
e 126 192
e 126 198
e 127 169
e 127 170
e 127 171
e 127 177
e 127 179
e 127 181
e 127 185
e 127 191
e 128 131
e 128 143
e 128 172
e 128 176
e 128 179
e 128 180
e 128 187
e 129 134
e 129 140
e 129 167
e 129 182
e 129 199
e 130 143
e 130 150
e 130 165
e 130 172
e 130 187
e 130 188
e 130 194
e 130 195
e 131 135
e 131 143
e 131 159
e 131 161
e 131 163
e 131 183
e 131 185
e 131 192
e 131 196
e 131 197
e 132 146
e 132 147
e 132 150
e 132 154
e 132 157
e 132 171
e 132 175
e 132 187
e 132 192
e 133 137
e 133 139
e 133 142
e 133 161
e 133 164
e 133 181
e 133 182
e 133 186
e 133 191
e 134 141
e 134 148
e 134 149
e 134 150
e 134 157
e 134 177
e 134 181
e 134 182
e 134 198
e 135 142
e 135 150
e 135 153
e 135 154
e 135 155
e 135 158
e 135 164
e 135 183
e 136 144
e 136 145
e 136 162
e 136 172
e 136 174
e 136 180
e 136 198
e 136 200
e 137 165
e 137 171
e 137 179
e 137 180
e 138 142
e 138 143
e 138 161
e 138 168
e 138 171
e 138 178
e 138 179
e 138 180
e 139 153
e 139 198
e 140 167
e 140 168
e 140 175
e 140 180
e 140 182
e 140 197
e 141 155
e 141 163
e 141 164
e 141 165
e 141 168
e 141 186
e 141 188
e 141 193
e 142 144
e 142 155
e 142 158
e 142 163
e 142 186
e 142 191
e 142 198
e 143 144
e 143 145
e 143 179
e 143 194
e 144 145
e 144 161
e 144 163
e 144 164
e 144 168
e 144 169
e 144 173
e 144 175
e 144 181
e 144 183
e 145 182
e 145 185
e 145 186
e 145 193
e 146 152
e 146 177
e 146 197
e 147 149
e 147 156
e 147 166
e 147 174
e 147 187
e 147 192
e 147 197
e 148 154
e 148 158
e 148 162
e 148 169
e 148 176
e 148 181
e 148 190
e 148 200
e 149 150
e 149 167
e 149 170
e 149 181
e 149 188
e 149 194
e 149 195
e 150 151
e 150 157
e 150 158
e 150 159
e 150 161
e 150 164
e 150 178
e 150 182
e 150 184
e 150 185
e 151 172
e 151 175
e 151 180
e 151 188
e 152 166
e 152 168
e 152 171
e 152 175
e 153 157
e 153 168
e 153 169
e 154 159
e 154 165
e 154 171
e 154 175
e 154 196
e 154 198
e 155 156
e 155 157
e 155 170
e 155 191
e 156 160
e 156 166
e 156 168
e 156 172
e 156 177
e 156 179
e 156 181
e 156 187
e 156 188
e 156 195
e 157 164
e 157 181
e 157 187
e 158 166
e 158 171
e 158 175
e 158 182
e 158 188
e 158 193
e 159 167
e 159 188
e 160 173
e 160 175
e 160 198
e 160 199
e 161 165
e 161 168
e 161 181
e 161 187
e 161 190
e 161 192
e 161 200
e 162 174
e 162 190
e 162 194
e 163 193
e 164 184
e 164 197
e 165 169
e 165 176
e 165 190
e 166 173
e 166 180
e 166 194
e 166 199
e 167 181
e 167 192
e 168 172
e 168 176
e 169 177
e 169 179
e 169 196
e 170 194
e 170 199
e 171 179
e 171 188
e 171 196
e 172 173
e 172 190
e 173 186
e 173 188
e 173 192
e 173 196
e 174 185
e 174 200
e 175 188
e 175 193
e 175 200
e 176 183
e 176 184
e 176 191
e 176 195
e 176 198
e 177 184
e 177 186
e 178 191
e 178 194
e 180 198
e 182 192
e 182 196
e 183 192
e 183 196
e 183 197
e 183 199
e 183 200
e 184 200
e 185 186
e 185 189
e 185 190
e 186 195
e 187 189
e 187 200
e 188 189
e 190 199
e 194 196
e 196 197
e 196 198
e 197 200
